<number of tasks>
20

<cycle time>
1000

<order strength>
0,147


<task times>
1 535
2 422
3 613
4 576
5 330
6 301
7 636
8 655
9 537
10 413
11 639
12 662
13 479
14 467
15 504
16 778
17 620
18 508
19 304
20 684

<precedence relations>
3,8
6,9
6,10
7,11
8,14
9,12
9,13
9,15
12,17
14,18
14,19
15,16
16,20

<end>
